%%% static parameters %%%
timespan = 1;
Fact = [4];
Distr1 = [15];
Distr2 = [30];
Clients_N = [300];
Demand_W = [15];
Lt0 = [4];
Lt1 = [4];
SS_ = [0.85];
DS_D = [8];
K = [200];
MA = [500];
%%% dynamic parameters %%%
lost_ratio_sales_ret_th = 0.000801480588736303;
lost_ratio_sales_ret_w = 77;
lost_ratio_sales_dis_th = 0.595096882656286;
lost_ratio_sales_dis_w = 100;
lost_ratio_sales_fac_th = 0.7113329932347894;
lost_ratio_sales_fac_w = 13;
stock_customer_MA_mean_relative_th = 0.5447519230659276;
stock_customer_MA_mean_relative_w = 46;
stock_distributor_MA_mean_relative_th = 0.15368998082742336;
stock_distributor_MA_mean_relative_w = 57;
stock_retailer_MA_mean_relative_th = 0.7373312794066365;
stock_retailer_MA_mean_relative_w = 91;
stock_factory_MA_mean_relative_th = 0.23556640378435056;
stock_factory_MA_mean_relative_w = 22;
